c This is QMaxSAT 2017 based on 14.07
c This is Glucose 3.0
c This is MiniSat 2.2.0
c WARNING: for repeatability, setting FPU to use double precision
c card = mrwto, comp = 0, pmodel = 0, narr = 19, mct = 76, verb = 0
cr firstCPXsol 0 0 0
c top = 189219
c |  Number of variables:    17672                                            |
c |  Number of clauses:      1427288                                          |
c |  Weight of hard clauses: 189219                                           |
c |  Number of soft clauses: 159600                                           |
c |  Number of unit soft clauses: 0                                           |
c |  Maximum Cardinality (by unit): 5213486      (0           )               |
c last restart ## conflicts  :  28 4678 
o 801 | cpuTime 1.25805 s
c Sum of weights = 274394
c A number of soft clauses remained = 8400
c MRWTO encoding for Pseudo-Boolean Constraints
c sizeMax=801
c No.0 Divisor=10	generated by pow1
c No.1 Divisor=10	generated by pow1
c No.2 Divisor=10	generated by pow1
c p0= 10	p1= 10	p2= 10	
c number of digits = 4
c linkingVar[0].size = 10, linkingVar[1].size = 10, linkingVar[2].size = 9, linkingVar[3].size = 1, 
c Pseudo-Boolean Constraints: 150628 variables and 1217622 clauses
c Sum of weights = 274394
c A number of soft clauses remained = 8400
c MRWTO encoding for Pseudo-Boolean Constraints
c sizeMax=801
c No.0 Divisor=10	generated by pow1
c No.1 Divisor=10	generated by pow1
c No.2 Divisor=10	generated by pow1
c p0= 10	p1= 10	p2= 10	
c number of digits = 4
c linkingVar[0].size = 10, linkingVar[1].size = 10, linkingVar[2].size = 9, linkingVar[3].size = 1, 
c Pseudo-Boolean Constraints: 150628 variables and 1217622 clauses
c Sum of weights = 274394
c A number of soft clauses remained = 8400
c MRWTO encoding for Pseudo-Boolean Constraints
c sizeMax=801
c No.0 Divisor=10	generated by pow1
c No.1 Divisor=10	generated by pow1
c No.2 Divisor=10	generated by pow1
c p0= 10	p1= 10	p2= 10	
c number of digits = 4
c linkingVar[0].size = 10, linkingVar[1].size = 10, linkingVar[2].size = 9, linkingVar[3].size = 1, 
c Pseudo-Boolean Constraints: 150628 variables and 1217622 clauses
c Sum of weights = 274394
c A number of soft clauses remained = 8400
c MRWTO encoding for Pseudo-Boolean Constraints
c sizeMax=801
c No.0 Divisor=10	generated by pow1
c No.1 Divisor=10	generated by pow1
c No.2 Divisor=10	generated by pow1
c p0= 10	p1= 10	p2= 10	
c number of digits = 4
c linkingVar[0].size = 10, linkingVar[1].size = 10, linkingVar[2].size = 9, linkingVar[3].size = 1, 
c Pseudo-Boolean Constraints: 150628 variables and 1217622 clauses
c Sum of weights = 274394
c A number of soft clauses remained = 8400
c MRWTO encoding for Pseudo-Boolean Constraints
c sizeMax=801
c No.0 Divisor=10	generated by pow1
c No.1 Divisor=10	generated by pow1
c No.2 Divisor=10	generated by pow1
c p0= 10	p1= 10	p2= 10	
c number of digits = 4
c linkingVar[0].size = 10, linkingVar[1].size = 10, linkingVar[2].size = 9, linkingVar[3].size = 1, 
c Pseudo-Boolean Constraints: 150628 variables and 1217622 clauses
c Sum of weights = 274394
c A number of soft clauses remained = 8400
c MRWTO encoding for Pseudo-Boolean Constraints
c sizeMax=801
c No.0 Divisor=10	generated by pow1
c No.1 Divisor=10	generated by pow1
c No.2 Divisor=10	generated by pow1
c p0= 10	p1= 10	p2= 10	
c number of digits = 4
c linkingVar[0].size = 10, linkingVar[1].size = 10, linkingVar[2].size = 9, linkingVar[3].size = 1, 
c Pseudo-Boolean Constraints: 150628 variables and 1217622 clauses
c Sum of weights = 274394
c A number of soft clauses remained = 8400
c MRWTO encoding for Pseudo-Boolean Constraints
c sizeMax=801
c No.0 Divisor=10	generated by pow1
c No.1 Divisor=10	generated by pow1
c No.2 Divisor=10	generated by pow1
c p0= 10	p1= 10	p2= 10	
c number of digits = 4
c linkingVar[0].size = 10, linkingVar[1].size = 10, linkingVar[2].size = 9, linkingVar[3].size = 1, 
c Pseudo-Boolean Constraints: 150628 variables and 1217622 clauses
c Sum of weights = 274394
c A number of soft clauses remained = 8400
c MRWTO encoding for Pseudo-Boolean Constraints
c sizeMax=801
c No.0 Divisor=10	generated by pow1
c No.1 Divisor=10	generated by pow1
c No.2 Divisor=10	generated by pow1
c p0= 10	p1= 10	p2= 10	
c number of digits = 4
c linkingVar[0].size = 10, linkingVar[1].size = 10, linkingVar[2].size = 9, linkingVar[3].size = 1, 
c Pseudo-Boolean Constraints: 150628 variables and 1217622 clauses
c Sum of weights = 274394
c A number of soft clauses remained = 8400
c MRWTO encoding for Pseudo-Boolean Constraints
c sizeMax=801
c No.0 Divisor=10	generated by pow1
c No.1 Divisor=10	generated by pow1
c No.2 Divisor=10	generated by pow1
c p0= 10	p1= 10	p2= 10	
c number of digits = 4
c linkingVar[0].size = 10, linkingVar[1].size = 10, linkingVar[2].size = 9, linkingVar[3].size = 1, 
c Pseudo-Boolean Constraints: 150628 variables and 1217622 clauses
c Sum of weights = 274394
c A number of soft clauses remained = 8400
c MRWTO encoding for Pseudo-Boolean Constraints
c sizeMax=801
c No.0 Divisor=10	generated by pow1
c No.1 Divisor=10	generated by pow1
c No.2 Divisor=10	generated by pow1
c p0= 10	p1= 10	p2= 10	
c number of digits = 4
c linkingVar[0].size = 10, linkingVar[1].size = 10, linkingVar[2].size = 9, linkingVar[3].size = 1, 
c Pseudo-Boolean Constraints: 150628 variables and 1217622 clauses
c Sum of weights = 274394
c A number of soft clauses remained = 8400
c MRWTO encoding for Pseudo-Boolean Constraints
c sizeMax=801
c No.0 Divisor=10	generated by pow1
c No.1 Divisor=10	generated by pow1
c No.2 Divisor=10	generated by pow1
c p0= 10	p1= 10	p2= 10	
c number of digits = 4
c linkingVar[0].size = 10, linkingVar[1].size = 10, linkingVar[2].size = 9, linkingVar[3].size = 1, 
c Pseudo-Boolean Constraints: 150628 variables and 1217622 clauses
c Sum of weights = 274394
c A number of soft clauses remained = 8400
c MRWTO encoding for Pseudo-Boolean Constraints
c sizeMax=801
c No.0 Divisor=10	generated by pow1
c No.1 Divisor=10	generated by pow1
c No.2 Divisor=10	generated by pow1
c p0= 10	p1= 10	p2= 10	
c number of digits = 4
c linkingVar[0].size = 10, linkingVar[1].size = 10, linkingVar[2].size = 9, linkingVar[3].size = 1, 
c Pseudo-Boolean Constraints: 150628 variables and 1217622 clauses
c Sum of weights = 274394
c A number of soft clauses remained = 8400
c MRWTO encoding for Pseudo-Boolean Constraints
c sizeMax=801
c No.0 Divisor=10	generated by pow1
c No.1 Divisor=10	generated by pow1
c No.2 Divisor=10	generated by pow1
c p0= 10	p1= 10	p2= 10	
c number of digits = 4
c linkingVar[0].size = 10, linkingVar[1].size = 10, linkingVar[2].size = 9, linkingVar[3].size = 1, 
c Pseudo-Boolean Constraints: 150628 variables and 1217622 clauses
c Sum of weights = 274394
c A number of soft clauses remained = 8400
c MRWTO encoding for Pseudo-Boolean Constraints
c sizeMax=801
c No.0 Divisor=10	generated by pow1
c No.1 Divisor=10	generated by pow1
c No.2 Divisor=10	generated by pow1
c p0= 10	p1= 10	p2= 10	
c number of digits = 4
c linkingVar[0].size = 10, linkingVar[1].size = 10, linkingVar[2].size = 9, linkingVar[3].size = 1, 
c Pseudo-Boolean Constraints: 150628 variables and 1217622 clauses
c Sum of weights = 274394
c A number of soft clauses remained = 8400
c MRWTO encoding for Pseudo-Boolean Constraints
c sizeMax=801
c No.0 Divisor=10	generated by pow1
c No.1 Divisor=10	generated by pow1
c No.2 Divisor=10	generated by pow1
c p0= 10	p1= 10	p2= 10	
c number of digits = 4
c linkingVar[0].size = 10, linkingVar[1].size = 10, linkingVar[2].size = 9, linkingVar[3].size = 1, 
c Pseudo-Boolean Constraints: 150628 variables and 1217622 clauses
c Sum of weights = 274394
c A number of soft clauses remained = 8400
c MRWTO encoding for Pseudo-Boolean Constraints
c sizeMax=801
c No.0 Divisor=10	generated by pow1
c No.1 Divisor=10	generated by pow1
c No.2 Divisor=10	generated by pow1
c p0= 10	p1= 10	p2= 10	
c number of digits = 4
c linkingVar[0].size = 10, linkingVar[1].size = 10, linkingVar[2].size = 9, linkingVar[3].size = 1, 
c Pseudo-Boolean Constraints: 150628 variables and 1217622 clauses
c Sum of weights = 274394
c A number of soft clauses remained = 8400
c MRWTO encoding for Pseudo-Boolean Constraints
c sizeMax=801
c No.0 Divisor=10	generated by pow1
c No.1 Divisor=10	generated by pow1
c No.2 Divisor=10	generated by pow1
c p0= 10	p1= 10	p2= 10	
c number of digits = 4
c linkingVar[0].size = 10, linkingVar[1].size = 10, linkingVar[2].size = 9, linkingVar[3].size = 1, 
c Pseudo-Boolean Constraints: 150628 variables and 1217622 clauses
c Sum of weights = 274394
c A number of soft clauses remained = 8400
c MRWTO encoding for Pseudo-Boolean Constraints
c sizeMax=801
c No.0 Divisor=10	generated by pow1
c No.1 Divisor=10	generated by pow1
c No.2 Divisor=10	generated by pow1
c p0= 10	p1= 10	p2= 10	
c number of digits = 4
c linkingVar[0].size = 10, linkingVar[1].size = 10, linkingVar[2].size = 9, linkingVar[3].size = 1, 
c Pseudo-Boolean Constraints: 150628 variables and 1217622 clauses
c Sum of weights = 274394
c A number of soft clauses remained = 8400
c MRWTO encoding for Pseudo-Boolean Constraints
c sizeMax=801
c No.0 Divisor=10	generated by pow1
c No.1 Divisor=10	generated by pow1
c No.2 Divisor=10	generated by pow1
c p0= 10	p1= 10	p2= 10	
c number of digits = 4
c linkingVar[0].size = 10, linkingVar[1].size = 10, linkingVar[2].size = 9, linkingVar[3].size = 1, 
c Pseudo-Boolean Constraints: 150628 variables and 1217622 clauses
c last restart ## conflicts  :  565 50412 
o 487 | cpuTime 17.2489 s
c last restart ## conflicts  :  757 56360 
o 402 | cpuTime 24.862 s
c last restart ## conflicts  :  833 52111 
o 333 | cpuTime 45.114 s
c last restart ## conflicts  :  658 66155 
o 251 | cpuTime 84.6847 s
c last restart ## conflicts  :  463 21867 
o 228 | cpuTime 160.843 s
c last restart ## conflicts  :  538 30942 
o 226 | cpuTime 1394.83 s
c last restart ## conflicts  :  720 45870 
o 221 | cpuTime 2112.63 s
c last restart ## conflicts  :  496 25376 
o 206 | cpuTime 2516.36 s
s UNKNOWN
c Search is stopped by a limit (maybe time-limit)
cr positiVarArr: [ | 56(1->38) | 147(1->35) | 228(1->22) | 318(1->18) | 436(1->42) | 537(1->49) | 591(1->9) | 741(1->65) | 786(1->16) | 926(1->62) | 1014(1->56) | 1109(1->57) | 1177(1->31) | 1254(1->14) | 1403(1->69) | 1475(1->47) | 1577(1->55) | 1659(1->43) | 1776(1->66) | 1838(2->34) | 1942(3->44) | 2044(4->52) | 2122(5->36) | 2180(6->1) | 2327(7->53) | 2387(8->19) | 2512(9->50) | 2593(10->37) | 2709(11->59) | 2820(12->76) | 2858(13->20) | 2945(14->13) | 3016(15->1) | 3141(16->21) | 3218(17->4) | 3383(18->75) | 3429(19->27) | 3525(20->29) | 3607(21->17) | 3712(22->28) | 3761(23->1) | 3895(24->23) | 4017(25->51) | 4061(26->1) | 4180(27->26) | 4240(28->1) | 4350(29->8) | 4424(30->1) | 4516(31->1) | 4639(32->15) | 4716(33->1) | 4799(34->1) | 4960(35->54) | 4984(36->1) | 5088(37->1) | 5261(38->73) | 5294(39->12) | 5408(40->32) | 5461(41->1) | 5631(42->67) | 5651(43->1) | 5793(44->41) | 5892(45->46) | 5946(46->6) | 6079(47->45) | 6130(48->2) | 6229(49->7) | 6388(50->72) | 6413(51->3) | 6537(52->33) | 6603(53->5) | 6763(54->71) | 6826(55->40) | 6904(56->24) | 6999(57->25) | 7078(58->10) | 7226(59->64) | 7241(60->1) | 7349(61->1) | 7502(62->58) | 7535(63->1) | 7621(64->1) | 7800(65->74) | 7831(66->11) | 7909(67->1) | 8004(68->1) | 8165(69->63) | 8256(70->60) | 8320(71->30) | 8423(72->39) | 8548(73->70) | 8633(74->61) | 8734(75->68) | 8808(76->48) | ]
cr the 1-th chain: [ 1->38->73->70->60->1 ] (#non-depot=4) {#cumul.=5}
cr the 2-th chain: [ 1->35->54->71->30->1 ] (#non-depot=4) {#cumul.=9}
cr the 3-th chain: [ 1->22->28->1 ] (#non-depot=2) {#cumul.=11}
cr the 4-th chain: [ 1->18->75->68->1 ] (#non-depot=3) {#cumul.=14}
cr the 5-th chain: [ 1->42->67->1 ] (#non-depot=2) {#cumul.=16}
cr the 6-th chain: [ 1->49->7->53->5->36->1 ] (#non-depot=5) {#cumul.=21}
cr the 7-th chain: [ 1->9->50->72->39->12->76->48->2->34->1 ] (#non-depot=9) {#cumul.=30}
cr the 8-th chain: [ 1->65->74->61->1 ] (#non-depot=3) {#cumul.=33}
cr the 9-th chain: [ 1->16->21->17->4->52->33->1 ] (#non-depot=6) {#cumul.=39}
cr the 10-th chain: [ 1->62->58->10->37->1 ] (#non-depot=4) {#cumul.=43}
cr the 11-th chain: [ 1->56->24->23->1 ] (#non-depot=3) {#cumul.=46}
cr the 12-th chain: [ 1->57->25->51->3->44->41->1 ] (#non-depot=6) {#cumul.=52}
cr the 13-th chain: [ 1->31->1 ] (#non-depot=1) {#cumul.=53}
cr the 14-th chain: [ 1->14->13->20->29->8->19->27->26->1 ] (#non-depot=8) {#cumul.=61}
cr the 15-th chain: [ 1->69->63->1 ] (#non-depot=2) {#cumul.=63}
cr the 16-th chain: [ 1->47->45->46->6->1 ] (#non-depot=4) {#cumul.=67}
cr the 17-th chain: [ 1->55->40->32->15->1 ] (#non-depot=4) {#cumul.=71}
cr the 18-th chain: [ 1->43->1 ] (#non-depot=1) {#cumul.=72}
cr the 19-th chain: [ 1->66->11->59->64->1 ] (#non-depot=4) {#cumul.=76}
c Latest Answer = 0 by 9 loops
c restarts              : 21650
c conflicts             : 3268970        (909 /sec)
c decisions             : 144582101      (0.00 % random) (40208 /sec)
c propagations          : 35443963665    (9857005 /sec)
c conflict literals     : 570238423      (30.72 % deleted)
c Memory used           : 2988.00 MB
c CPU time              : 3595.81 s
